(set-info :smt-lib-version 2.6)
(set-logic QF_SLIA)
(set-info :source |
Generated by: Andrew Reynolds
Generated on: 2018-04-25
Generator: Kudzu, converted to v2.6 by CVC4
Application: Symbolic Execution of Javascript
Target solver: Kaluza
Publications: "A symbolic execution framework for JavaScript" by P. Saxena, D. Akhawe, S. Hanna, F. Mao, S. McCamant, and D. Song, 2010.
|)
(set-info :license "https://creativecommons.org/licenses/by/4.0/")
(set-info :category "industrial")
(set-info :status unknown)



(declare-fun PCTEMP_LHS_1 () String)
(declare-fun PCTEMP_LHS_2 () String)
(declare-fun PCTEMP_LHS_3 () String)
(declare-fun PCTEMP_LHS_4 () String)
(declare-fun PCTEMP_LHS_5 () String)
(declare-fun PCTEMP_LHS_6 () String)
(declare-fun PCTEMP_LHS_7 () String)
(declare-fun T_10 () String)
(declare-fun T_11 () Bool)
(declare-fun T_12 () Bool)
(declare-fun T_13 () String)
(declare-fun T_14 () String)
(declare-fun T_15 () Bool)
(declare-fun T_16 () Bool)
(declare-fun T_17 () String)
(declare-fun T_18 () String)
(declare-fun T_19 () Bool)
(declare-fun T_1a () Bool)
(declare-fun T_1b () String)
(declare-fun T_1c () String)
(declare-fun T_1d () Bool)
(declare-fun T_1e () String)
(declare-fun T_1f () String)
(declare-fun T_20 () Bool)
(declare-fun T_21 () Bool)
(declare-fun T_22 () String)
(declare-fun T_23 () String)
(declare-fun T_24 () Bool)
(declare-fun T_25 () Bool)
(declare-fun T_26 () String)
(declare-fun T_27 () String)
(declare-fun T_28 () Bool)
(declare-fun T_29 () Bool)
(declare-fun T_2a () String)
(declare-fun T_2b () String)
(declare-fun T_2c () Bool)
(declare-fun T_2d () String)
(declare-fun T_2e () String)
(declare-fun T_2f () Bool)
(declare-fun T_30 () Bool)
(declare-fun T_31 () String)
(declare-fun T_32 () String)
(declare-fun T_33 () Bool)
(declare-fun T_34 () Bool)
(declare-fun T_35 () String)
(declare-fun T_36 () String)
(declare-fun T_37 () Bool)
(declare-fun T_38 () Bool)
(declare-fun T_39 () String)
(declare-fun T_3a () String)
(declare-fun T_3b () Bool)
(declare-fun T_3c () Bool)
(declare-fun T_3d () String)
(declare-fun T_3e () String)
(declare-fun T_3f () Bool)
(declare-fun T_40 () String)
(declare-fun T_41 () String)
(declare-fun T_42 () Bool)
(declare-fun T_43 () Bool)
(declare-fun T_44 () String)
(declare-fun T_45 () String)
(declare-fun T_46 () Bool)
(declare-fun T_47 () Bool)
(declare-fun T_48 () String)
(declare-fun T_49 () String)
(declare-fun T_4a () Bool)
(declare-fun T_4b () Bool)
(declare-fun T_8 () String)
(declare-fun T_9 () String)
(declare-fun T_a () Bool)
(declare-fun T_b () String)
(declare-fun T_c () String)
(declare-fun T_d () Bool)
(declare-fun T_e () Bool)
(declare-fun T_f () String)
(assert (not (str.in_re PCTEMP_LHS_1 (re.++ (str.to_re "%") (str.to_re "h") (str.to_re "o") (str.to_re "s") (str.to_re "t") (str.to_re "%")))))
(assert (= PCTEMP_LHS_1 "http://www.ig.gmodules.com/gadgets/proxy/refresh=%refresh%&container=%container%%rewriteMime%&gadget=%gadget%/%rawurl%"))
(assert (not (str.in_re PCTEMP_LHS_2 (re.++ (str.to_re "%") (str.to_re "r") (str.to_re "a") (str.to_re "w") (str.to_re "u") (str.to_re "r") (str.to_re "l") (str.to_re "%")))))
(assert (= PCTEMP_LHS_2 PCTEMP_LHS_1))
(assert (not (str.in_re PCTEMP_LHS_3 (re.++ (str.to_re "%") (str.to_re "r") (str.to_re "e") (str.to_re "f") (str.to_re "r") (str.to_re "e") (str.to_re "s") (str.to_re "h") (str.to_re "%")))))
(assert (= PCTEMP_LHS_3 PCTEMP_LHS_2))
(assert (not (str.in_re PCTEMP_LHS_4 (re.++ (str.to_re "%") (str.to_re "g") (str.to_re "a") (str.to_re "d") (str.to_re "g") (str.to_re "e") (str.to_re "t") (str.to_re "%")))))
(assert (= PCTEMP_LHS_4 PCTEMP_LHS_3))
(assert (not (str.in_re PCTEMP_LHS_5 (re.++ (str.to_re "%") (str.to_re "c") (str.to_re "o") (str.to_re "n") (str.to_re "t") (str.to_re "a") (str.to_re "i") (str.to_re "n") (str.to_re "e") (str.to_re "r") (str.to_re "%")))))
(assert (= PCTEMP_LHS_5 PCTEMP_LHS_4))
(assert (not (str.in_re PCTEMP_LHS_6 (re.++ (str.to_re "%") (str.to_re "r") (str.to_re "e") (str.to_re "w") (str.to_re "r") (str.to_re "i") (str.to_re "t") (str.to_re "e") (str.to_re "M") (str.to_re "i") (str.to_re "m") (str.to_re "e") (str.to_re "%")))))
(assert (= PCTEMP_LHS_6 PCTEMP_LHS_5))
(assert (not (str.in_re PCTEMP_LHS_7 (re.++ (str.to_re "%") (str.to_re "r") (str.to_re "e") (str.to_re "w") (str.to_re "r") (str.to_re "i") (str.to_re "t") (str.to_re "e") (str.to_re "M") (str.to_re "i") (str.to_re "m") (str.to_re "e") (str.to_re "%")))))
(assert (= PCTEMP_LHS_7 PCTEMP_LHS_6))
(assert (= T_8 (str.++ "url(" PCTEMP_LHS_7)))
(assert (= T_9 (str.++ T_8 ")")))
(assert (= T_a (= "" T_9)))
(assert T_a)
(assert (= T_b (str.++ "url(" PCTEMP_LHS_7)))
(assert (= T_c (str.++ T_b ")")))
(assert (= T_d (not (= T_c "string"))))
(assert (= T_e (not T_d)))
(assert T_e)
(assert (= T_f (str.++ "url(" PCTEMP_LHS_7)))
(assert (= T_10 (str.++ T_f ")")))
(assert (= T_11 (not (= T_10 "string"))))
(assert (= T_12 (not T_11)))
(assert T_12)
(assert (= T_13 (str.++ "url(" PCTEMP_LHS_7)))
(assert (= T_14 (str.++ T_13 ")")))
(assert (= T_15 (not (= T_14 "string"))))
(assert (= T_16 (not T_15)))
(assert T_16)
(assert (= T_17 (str.++ "url(" PCTEMP_LHS_7)))
(assert (= T_18 (str.++ T_17 ")")))
(assert (= T_19 (not (= T_18 "string"))))
(assert (= T_1a (not T_19)))
(assert T_1a)
(assert (= T_1b (str.++ "url(" PCTEMP_LHS_7)))
(assert (= T_1c (str.++ T_1b ")")))
(assert (= T_1d (not (= "" T_1c))))
(assert T_1d)
(assert (= T_1e (str.++ "url(" PCTEMP_LHS_7)))
(assert (= T_1f (str.++ T_1e ")")))
(assert (= T_21 (not T_20)))
(assert T_21)
(assert (= T_22 (str.++ "url(" PCTEMP_LHS_7)))
(assert (= T_23 (str.++ T_22 ")")))
(assert (= T_25 (not T_24)))
(assert T_25)
(assert (= T_26 (str.++ "url(" PCTEMP_LHS_7)))
(assert (= T_27 (str.++ T_26 ")")))
(assert (= T_29 (not T_28)))
(assert T_29)
(assert (= T_2a (str.++ "url(" PCTEMP_LHS_7)))
(assert (= T_2b (str.++ T_2a ")")))
(assert (= T_2c (= "" T_2b)))
(assert T_2c)
(assert (= T_2d (str.++ "url(" PCTEMP_LHS_7)))
(assert (= T_2e (str.++ T_2d ")")))
(assert (= T_2f (not (= T_2e "string"))))
(assert (= T_30 (not T_2f)))
(assert T_30)
(assert (= T_31 (str.++ "url(" PCTEMP_LHS_7)))
(assert (= T_32 (str.++ T_31 ")")))
(assert (= T_33 (not (= T_32 "string"))))
(assert (= T_34 (not T_33)))
(assert T_34)
(assert (= T_35 (str.++ "url(" PCTEMP_LHS_7)))
(assert (= T_36 (str.++ T_35 ")")))
(assert (= T_37 (not (= T_36 "string"))))
(assert (= T_38 (not T_37)))
(assert T_38)
(assert (= T_39 (str.++ "url(" PCTEMP_LHS_7)))
(assert (= T_3a (str.++ T_39 ")")))
(assert (= T_3b (not (= T_3a "string"))))
(assert (= T_3c (not T_3b)))
(assert T_3c)
(assert (= T_3d (str.++ "url(" PCTEMP_LHS_7)))
(assert (= T_3e (str.++ T_3d ")")))
(assert (= T_3f (not (= "" T_3e))))
(assert T_3f)
(assert (= T_40 (str.++ "url(" PCTEMP_LHS_7)))
(assert (= T_41 (str.++ T_40 ")")))
(assert (= T_43 (not T_42)))
(assert T_43)
(assert (= T_44 (str.++ "url(" PCTEMP_LHS_7)))
(assert (= T_45 (str.++ T_44 ")")))
(assert (= T_47 (not T_46)))
(assert T_47)
(assert (= T_48 (str.++ "url(" PCTEMP_LHS_7)))
(assert (= T_49 (str.++ T_48 ")")))
(assert (= T_4b (not T_4a)))
(assert T_4b)
(check-sat)

